(set-option :produce-models true)
(set-logic QF_UF)
(declare-fun p37() Bool)
(declare-fun p1() Bool)
(declare-fun p44() Bool)
(declare-fun p64() Bool)
(declare-fun p41() Bool)
(declare-fun p43() Bool)
(declare-fun p50() Bool)
(declare-fun p53() Bool)
(declare-fun p13() Bool)
(declare-fun p48() Bool)
(declare-fun p28() Bool)
(declare-fun p54() Bool)
(declare-fun p55() Bool)
(declare-fun p49() Bool)
(declare-fun p61() Bool)
(declare-fun p12() Bool)
(declare-fun p9() Bool)
(declare-fun p15() Bool)
(declare-fun p34() Bool)
(declare-fun p33() Bool)
(declare-fun p74() Bool)
(declare-fun p30() Bool)
(declare-fun p17() Bool)
(declare-fun p79() Bool)
(declare-fun p21() Bool)
(declare-fun p45() Bool)
(declare-fun p47() Bool)
(declare-fun p6() Bool)
(declare-fun p23() Bool)
(declare-fun p57() Bool)
(declare-fun p75() Bool)
(declare-fun p56() Bool)
(declare-fun p31() Bool)
(declare-fun p72() Bool)
(declare-fun p67() Bool)
(declare-fun p29() Bool)
(declare-fun p65() Bool)
(declare-fun p32() Bool)
(declare-fun p25() Bool)
(declare-fun p40() Bool)
(declare-fun p7() Bool)
(declare-fun p11() Bool)
(declare-fun p73() Bool)
(declare-fun p59() Bool)
(declare-fun p35() Bool)
(declare-fun p24() Bool)
(declare-fun p52() Bool)
(declare-fun p27() Bool)
(declare-fun p38() Bool)
(declare-fun p39() Bool)
(declare-fun p51() Bool)
(declare-fun p63() Bool)
(declare-fun p36() Bool)
(declare-fun p26() Bool)
(declare-fun p71() Bool)
(declare-fun p42() Bool)
(declare-fun p20() Bool)
(declare-fun p78() Bool)
(declare-fun p77() Bool)
(declare-fun p5() Bool)
(declare-fun p4() Bool)
(declare-fun p69() Bool)
(declare-fun p16() Bool)
(declare-fun p58() Bool)
(declare-fun p2() Bool)
(declare-fun p68() Bool)
(declare-fun p14() Bool)
(declare-fun p0() Bool)
(declare-fun p19() Bool)
(declare-fun p60() Bool)
(declare-fun p76() Bool)
(declare-fun p70() Bool)
(declare-fun p10() Bool)
(declare-fun p66() Bool)
(declare-fun p18() Bool)
(declare-fun p62() Bool)
(declare-fun p46() Bool)
(declare-fun p8() Bool)
(declare-fun p22() Bool)
(declare-fun p3() Bool)
(assert
(and (or p37 p1 p44) (or p64 (not p41) (not p43)) (or (not p50) p53 (not p13)) (or p48 (not p28) p54) (or (not p55) p49 p61) (or p12 (not p9) p64) (or (not p15) p54 p34) (or (not p33) p74 p48) (or p30 (not p17) p12) (or (not p79) (not p21) (not p45)) (or (not p47) (not p6) (not p23)) (or p57 p75 (not p56)) (or p23 p1 (not p31)) (or (not p72) p67 (not p29)) (or (not p65) p61 (not p32)) (or (not p25) p49 p64) (or p40 p57 p7) (or p11 (not p73) (not p15)) (or p59 p32 p35) (or (not p24) (not p52) (not p1)) (or (not p28) (not p7) p27) (or p75 p57 p38) (or p37 p39 p67) (or (not p33) (not p56) (not p74)) (or p1 (not p48) (not p75)) (or p73 p32 p51) (or (not p30) p63 p36) (or (not p29) p37 (not p26)) (or (not p40) (not p41) (not p71)) (or (not p49) p54 (not p54)) (or p34 p35 p79) (or (not p25) (not p7) (not p38)) (or p63 p42 (not p20)) (or (not p43) p73 p59) (or p78 p35 p74) (or p59 p30 p77) (or (not p23) (not p39) p35) (or (not p5) p74 p9) (or (not p73) (not p57) (not p13)) (or p5 (not p71) (not p30)) (or p5 p4 (not p53)) (or (not p23) (not p33) (not p77)) (or (not p24) p11 (not p12)) (or (not p69) p16 (not p4)) (or (not p15) p26 p38) (or (not p40) (not p53) p12) (or (not p21) (not p58) p69) (or (not p28) (not p2) p16) (or p61 (not p51) (not p29)) (or (not p38) (not p12) p15) (or (not p68) (not p14) (not p14)) (or (not p50) p47 p29) (or (not p17) (not p55) p37) (or p75 p58 (not p0)) (or (not p58) (not p52) (not p38)) (or p19 p4 p73) (or p44 (not p57) (not p51)) (or (not p17) p60 (not p11)) (or p67 (not p77) (not p61)) (or p59 p2 p71) (or (not p6) (not p59) (not p13)) (or p15 p76 p71) (or (not p70) p76 (not p73)) (or (not p21) p63 p10) (or p66 (not p65) p11) (or p4 (not p39) p59) (or (not p32) (not p68) (not p78)) (or p26 (not p49) p4) (or (not p52) p13 (not p36)) (or p42 p34 (not p21)) (or p36 (not p51) (not p66)) (or p29 p17 p21) (or (not p24) p31 (not p15)) (or p78 p36 p76) (or p18 p54 p68) (or p27 (not p69) p7) (or (not p23) p79 (not p12)) (or (not p67) p53 p62) (or p52 (not p50) p63) (or (not p41) p62 (not p15)) (or (not p16) p18 (not p7)) (or (not p62) p60 p29) (or (not p57) (not p4) p39) (or p14 (not p10) p39) (or (not p41) p45 (not p17)) (or (not p67) (not p31) (not p29)) (or (not p68) p46 (not p40)) (or (not p55) (not p44) p14) (or (not p73) (not p18) (not p35)) (or (not p38) (not p76) (not p64)) (or p77 p7 (not p62)) (or (not p50) p78 (not p41)) (or (not p75) p45 (not p23)) (or p5 p76 (not p25)) (or p75 (not p53) p14) (or p10 (not p16) p75) (or (not p40) p18 p44) (or p25 p64 (not p7)) (or (not p52) p2 (not p71)) (or p41 p66 (not p72)) (or p58 p46 (not p61)) (or p21 (not p44) p0) (or p9 (not p0) p45) (or (not p5) p36 p48) (or p49 p15 (not p55)) (or (not p63) p8 p22) (or (not p73) p2 p26) (or p9 p38 (not p79)) (or p60 p10 (not p29)) (or (not p3) (not p45) p47) (or (not p25) p0 p10) (or (not p12) (not p3) p41) (or p45 (not p32) (not p34)) (or (not p63) (not p69) (not p70)) (or (not p38) p30 p11) (or (not p8) p0 (not p43)) (or (not p0) p5 p11) (or (not p32) p4 (not p6)) (or (not p63) (not p66) (not p54)) (or p25 p74 (not p70)) (or (not p34) p37 (not p6)) (or (not p3) p75 (not p46)) (or (not p75) (not p24) p5) (or p14 p37 (not p13)) (or (not p66) (not p44) p34) (or (not p15) (not p4) (not p24)) (or (not p59) (not p59) (not p58)) (or p20 (not p55) (not p6)) (or p63 p73 (not p36)) (or (not p22) (not p15) (not p10)) (or (not p53) (not p58) (not p16)) (or (not p21) p12 p20) (or (not p54) p7 (not p10)) (or (not p20) p4 p23) (or (not p5) p13 p41) (or (not p56) p76 p75) (or (not p77) (not p17) p8) (or (not p7) p73 (not p23)) (or (not p24) p43 (not p12)) (or p59 p64 (not p38)) (or (not p57) (not p24) (not p37)) (or p22 p11 (not p26)) (or (not p48) (not p49) (not p18)) (or (not p51) p28 p27) (or p16 (not p59) (not p41)) (or (not p54) (not p19) (not p20)) (or (not p54) p40 (not p36)) (or p44 (not p78) p71) (or (not p3) p58 p46) (or (not p63) (not p38) (not p10)) (or p24 p59 p27) (or (not p5) p59 p44) (or (not p4) (not p48) (not p8)) (or p37 p6 (not p1)) (or p7 (not p59) (not p45)) (or p11 p65 (not p14)) (or (not p72) (not p52) p26) (or (not p25) (not p31) (not p15)) (or p4 p26 p24) (or p30 (not p33) (not p53)) (or p33 (not p67) p77) (or p22 p18 (not p50)) (or p47 (not p72) (not p21)) (or p25 p76 (not p22)) (or p35 p4 (not p72)) (or p1 (not p22) p6) (or p53 p69 (not p35)) (or p67 (not p38) p3) (or p40 p16 p30) (or (not p34) p21 p43) (or (not p76) p12 (not p21)) (or p43 p31 p41) (or (not p58) (not p37) p32) (or p7 p43 (not p60)) (or (not p53) p48 (not p18)) (or (not p56) (not p21) (not p64)) (or p36 (not p14) (not p25)) (or p31 p65 p68) (or (not p22) p45 p32) (or p39 (not p79) p69) (or (not p14) p73 (not p8)) (or p26 (not p0) (not p18)) (or (not p73) p53 (not p4)) (or (not p6) p12 p12) (or p59 p14 p69) (or p23 p9 (not p37)) (or (not p46) p62 (not p66)) (or (not p54) (not p17) (not p58)) (or (not p40) p64 p43) (or p63 p9 p10) (or p16 (not p44) p21) (or p37 (not p24) (not p22)) (or (not p11) (not p26) (not p38)) (or p54 p19 (not p42)) (or (not p0) (not p73) p67) (or (not p50) (not p29) (not p72)) (or p13 (not p32) p16) (or (not p74) p14 (not p72)) (or (not p51) (not p37) p38) (or (not p50) (not p28) p18) (or p78 (not p40) p54) (or (not p11) p54 (not p31)) (or p65 p18 p66) (or p55 (not p78) (not p36)) (or p44 p12 (not p74)) (or p65 (not p7) p64) (or p36 p57 (not p70)) (or p9 (not p26) (not p4)) (or p7 p37 p45) (or p37 (not p44) p66) (or p18 p59 (not p42)) (or p52 p79 p50) (or (not p75) (not p14) p35) (or p63 p78 p77) (or p32 (not p45) p61) (or p73 p39 (not p34)) (or (not p51) p43 (not p74)) (or (not p6) (not p32) p39) (or (not p27) p27 p17) (or p26 (not p63) p59) (or p46 p45 p17) (or p13 p15 p54) (or p77 (not p47) (not p12)) (or p5 (not p58) p21) (or p41 p12 (not p9)) (or p18 (not p31) p62) (or (not p66) (not p6) p36) (or p58 (not p28) p55) (or p17 p8 (not p33)) (or p57 (not p57) p25) (or p61 p56 (not p15)) (or p0 (not p43) (not p7)) (or p11 (not p37) (not p28)) (or (not p63) p41 p13) (or p34 p74 p45) (or p10 (not p74) (not p34)) (or p42 p26 p79) (or (not p34) (not p29) (not p35)) (or (not p42) (not p9) p12) (or (not p0) (not p71) (not p20)) (or p3 (not p12) p34) (or p36 p0 p27) (or p69 p44 p30) (or p79 (not p28) (not p10)) (or p24 (not p69) p61) (or p56 p76 p36) (or p24 p14 (not p66)) (or (not p74) p57 p59) (or p8 (not p51) p35) (or p29 p6 p65) (or (not p76) p64 p20) (or (not p35) (not p71) (not p14)) (or p71 p7 (not p71)) (or (not p31) p60 p63) (or (not p22) (not p63) (not p10)) (or p10 (not p17) (not p28)) (or (not p7) p20 (not p18)) (or p36 (not p66) (not p10)) (or p1 (not p14) p70) (or p63 (not p69) p31) (or p74 (not p40) (not p54)) (or p76 p50 p38) (or p30 (not p10) p10) (or (not p75) p48 p75) (or (not p11) p19 (not p74)) (or p9 (not p10) (not p66)) (or (not p28) (not p30) p68) (or (not p48) (not p62) (not p1)) (or (not p48) (not p10) p11) (or p52 (not p56) (not p1)) (or (not p49) (not p75) (not p46)) (or (not p73) (not p72) (not p43)) (or p54 p16 p34) (or p58 p25 p73) (or p12 (not p62) p40) (or p37 p15 p41) (or (not p49) p41 (not p64)) (or p35 (not p7) p22) (or p45 p37 (not p78)) (or p21 (not p79) (not p34)) (or p70 p2 (not p43)) (or p73 p25 (not p0)) (or p42 (not p7) p41) (or (not p13) (not p6) p79) (or (not p78) (not p73) (not p43)) (or (not p1) p28 p32) (or (not p8) p7 p27) (or (not p16) (not p27) p57) (or (not p33) p46 (not p61)) (or (not p75) p40 p57) (or p43 p60 (not p52)) (or p12 (not p3) p76) (or (not p5) (not p44) (not p59)) (or (not p77) p6 (not p75)) (or (not p18) (not p24) p34) (or (not p77) (not p21) (not p12)) (or p26 p47 p46) (or p37 (not p5) p42) (or (not p11) p27 (not p49)) (or (not p38) p55 p59) (or (not p11) (not p9) p57) (or (not p37) p52 (not p52)) (or (not p71) (not p28) p41) (or (not p66) (not p57) (not p21)) (or (not p42) (not p59) (not p28)) (or (not p0) (not p50) (not p26)) (or p35 (not p59) (not p5)) (or p65 (not p7) (not p26)) (or (not p65) p70 p41) (or p42 (not p42) (not p61)) (or p75 (not p61) (not p61)) (or (not p6) p35 (not p35)) (or p72 (not p21) p46) (or p5 (not p35) (not p32)) (or (not p20) (not p45) p27) (or p5 (not p56) (not p73)) (or p0 (not p48) p71) (or (not p15) (not p28) p38) (or (not p29) (not p35) (not p43)) (or p18 p34 (not p72)) (or p3 (not p6) (not p71)) (or p65 (not p12) (not p25)) (or p74 p60 (not p58)) (or p78 (not p50) (not p57)) (or p61 (not p79) (not p60)) (or p74 p47 p3) (or (not p53) (not p13) (not p52)) (or p51 (not p24) (not p4)) (or p35 (not p67) (not p68)) (or (not p1) (not p37) (not p18)) (or p10 p61 p2) (or p7 (not p0) p29) (or p22 (not p3) p71) (or p0 p30 (not p43)) (or p7 p55 p40) (or (not p37) (not p6) (not p30)) (or (not p76) p75 p41))
)
(check-sat)
(get-model)
